nServers = 20;
nVms = 66;
nJobs = 9;
res1Vms = [2, 1, 1, 1, 2, 1, 1, 1, 1, 1, 2, 1, 1, 1, 1, 1, 1, 1, 1, 1, 1, 1, 1, 1, 1, 1, 1, 1, 1, 1, 1, 1, 1, 1, 1, 1, 1, 1, 1, 1, 1, 1, 1, 1, 1, 1, 1, 1, 1, 1, 1, 1, 1, 1, 1, 1, 1, 1, 1, 1, 1, 1, 2, 1, 1, 1];
res2Vms = [1, 4, 3, 2, 2, 1, 1, 2, 1, 2, 1, 1, 3, 1, 1, 1, 1, 1, 2, 1, 1, 1, 1, 1, 5, 1, 1, 1, 1, 1, 1, 3, 1, 1, 1, 1, 1, 1, 1, 1, 1, 1, 1, 1, 4, 5, 1, 1, 1, 1, 1, 1, 1, 1, 1, 1, 1, 1, 1, 3, 1, 1, 1, 1, 1, 1];
res1Server = [5, 2, 5, 5, 5, 2, 2, 5, 5, 5, 5, 5, 5, 5, 5, 5, 5, 5, 5, 5];
res2Server = [12, 4, 8, 9, 9, 4, 4, 9, 6, 6, 4, 4, 7, 9, 8, 10, 6, 7, 9, 5];
jobStart = [1, 5, 8, 18, 28, 44, 49, 56, 58];
jobEnd = [2, 7, 14, 24, 30, 45, 51, 57, 63];
